*SENSE:Minimize
NAME          MODEL
ROWS
 N  OBJ
 E  C0000000
 E  C0000001
 E  C0000002
 L  C0000003
 L  C0000004
 L  C0000005
 L  C0000006
 L  C0000007
 L  C0000008
 L  C0000009
 L  C0000010
COLUMNS
    X0000000  OBJ        1.000000000000e+00
    MARK      'MARKER'                 'INTORG'
    X0000001  C0000009   2.000000000000e+00
    X0000001  C0000000   1.000000000000e+00
    X0000001  C0000003   2.000000000000e+00
    X0000001  C0000008   2.000000000000e+00
    MARK      'MARKER'                 'INTEND'
    MARK      'MARKER'                 'INTORG'
    X0000002  C0000000   1.000000000000e+00
    X0000002  C0000004   2.000000000000e+00
    X0000002  C0000007   2.000000000000e+00
    MARK      'MARKER'                 'INTEND'
    MARK      'MARKER'                 'INTORG'
    X0000003  C0000000   1.000000000000e+00
    X0000003  C0000005   2.000000000000e+00
    X0000003  C0000010   2.000000000000e+00
    X0000003  C0000006   2.000000000000e+00
    MARK      'MARKER'                 'INTEND'
    MARK      'MARKER'                 'INTORG'
    X0000004  C0000001   1.000000000000e+00
    X0000004  C0000008   1.500000000000e+00
    X0000004  C0000003   1.500000000000e+00
    X0000004  C0000009   1.500000000000e+00
    MARK      'MARKER'                 'INTEND'
    MARK      'MARKER'                 'INTORG'
    X0000005  C0000001   1.000000000000e+00
    X0000005  C0000004   1.500000000000e+00
    X0000005  C0000007   1.500000000000e+00
    MARK      'MARKER'                 'INTEND'
    MARK      'MARKER'                 'INTORG'
    X0000006  C0000001   1.000000000000e+00
    X0000006  C0000005   1.500000000000e+00
    X0000006  C0000010   1.500000000000e+00
    X0000006  C0000006   1.500000000000e+00
    MARK      'MARKER'                 'INTEND'
    MARK      'MARKER'                 'INTORG'
    X0000007  C0000009   1.500000000000e+00
    X0000007  C0000008   1.500000000000e+00
    X0000007  C0000003   1.500000000000e+00
    X0000007  C0000002   1.000000000000e+00
    MARK      'MARKER'                 'INTEND'
    MARK      'MARKER'                 'INTORG'
    X0000008  C0000002   1.000000000000e+00
    X0000008  C0000004   1.500000000000e+00
    X0000008  C0000007   1.500000000000e+00
    MARK      'MARKER'                 'INTEND'
    MARK      'MARKER'                 'INTORG'
    X0000009  C0000002   1.000000000000e+00
    X0000009  C0000005   1.500000000000e+00
    X0000009  C0000010   1.500000000000e+00
    X0000009  C0000006   1.500000000000e+00
    MARK      'MARKER'                 'INTEND'
RHS
    RHS       C0000000   1.000000000000e+00
    RHS       C0000001   1.000000000000e+00
    RHS       C0000002   1.000000000000e+00
    RHS       C0000003   3.000000000000e+00
    RHS       C0000004   3.000000000000e+00
    RHS       C0000005   3.000000000000e+00
    RHS       C0000006   3.000000000000e+00
    RHS       C0000007   3.000000000000e+00
    RHS       C0000008   3.000000000000e+00
    RHS       C0000009   3.000000000000e+00
    RHS       C0000010   3.000000000000e+00
BOUNDS
 FX BND       X0000000   0.000000000000e+00
 BV BND       X0000001
 BV BND       X0000002
 BV BND       X0000003
 BV BND       X0000004
 BV BND       X0000005
 BV BND       X0000006
 BV BND       X0000007
 BV BND       X0000008
 BV BND       X0000009
ENDATA
